#######################################
### Exact MIP solver for the HHCRSP ###
#######################################
-- Instance file: new-instances/HHCRSP_300_60_87_0.8_C_C.txt
-- Max threads: 4
-- Time limit: 999999 seconds
-- Use initial solution: No
Trivial flow violations prevented generating 1128043 variables.
Version identifier: 20.1.0.0 | 2020-11-10 | 9bedb6d68
CPXPARAM_Threads                                 4
CPXPARAM_TimeLimit                               999999
Parallel mode: deterministic, using up to 4 threads for concurrent optimization:
 * Starting dual Simplex on 1 thread...
 * Starting Barrier on 3 threads...
Tried aggregator 1 time.
LP Presolve eliminated 43542 rows and 9296 columns.
Reduced LP has 1142168 rows, 1088136 columns, and 24108847 nonzeros.
Presolve time = 26.29 sec. (5369.39 ticks)
Symmetry aggregator did 1813715 additional substitutions.

Iteration log . . .
Iteration:     1   Dual objective     =             0.000000
Iteration:  1403   Dual objective     =           333.000000

Dual crossover.
  Dual:  Fixing 1877 variables.
     1876 DMoves:  Infeasibility  2.02488026e-12  Objective  3.39333333e+02
        0 DMoves:  Infeasibility  8.01775313e-13  Objective  3.39333333e+02
  Dual:  Pushed 81, exchanged 1796.
  Primal:  Fixing 1078 variables.
     1077 PMoves:  Infeasibility  1.38777878e-17  Objective  3.39333333e+02
        0 PMoves:  Infeasibility  2.77555756e-16  Objective  3.39333333e+02
  Primal:  Pushed 936, exchanged 142.

Dual simplex solved model.


Solution status from MIP model:
-- Processing time: 44.711 sec.
-- Memory used: 992.484 MB
-- Best bound: inf
-- Obj value: 339.333
-- Gap: inf%
-- Total distance: 1018
-- Total tardiness: 0
-- Largest tardiness: 0
